(set-info :smt-lib-version 2.6)
(set-logic UFLIA)
(set-info :source |Benchmarks from the paper: "Extending Sledgehammer with SMT Solvers" by Jasmin Blanchette, Sascha Bohme, and Lawrence C. Paulson, CADE 2011.  Translated to SMT2 by Andrew Reynolds and Morgan Deters.|)
(set-info :category "industrial")
(set-info :status unknown)
(declare-sort S1 0)
(declare-sort S2 0)
(declare-sort S3 0)
(declare-sort S4 0)
(declare-sort S5 0)
(declare-sort S6 0)
(declare-sort S7 0)
(declare-sort S8 0)
(declare-sort S9 0)
(declare-sort S10 0)
(declare-sort S11 0)
(declare-sort S12 0)
(declare-sort S13 0)
(declare-sort S14 0)
(declare-sort S15 0)
(declare-sort S16 0)
(declare-sort S17 0)
(declare-sort S18 0)
(declare-sort S19 0)
(declare-sort S20 0)
(declare-sort S21 0)
(declare-sort S22 0)
(declare-sort S23 0)
(declare-sort S24 0)
(declare-sort S25 0)
(declare-fun f1 () S1)
(declare-fun f2 () S1)
(declare-fun f3 (S3 S2) S1)
(declare-fun f4 (S4 S3) S3)
(declare-fun f5 (S2) S4)
(declare-fun f6 (S2 S3) S1)
(declare-fun f7 (S2) S4)
(declare-fun f8 () S3)
(declare-fun f9 (S3 S3) S1)
(declare-fun f10 () S3)
(declare-fun f11 (S2) S4)
(declare-fun f12 (S5 S6) S2)
(declare-fun f13 (S7 S8) S5)
(declare-fun f14 (S9 S6) S7)
(declare-fun f15 () S9)
(declare-fun f16 () S6)
(declare-fun f17 (S10 S11) S8)
(declare-fun f18 () S10)
(declare-fun f19 () S11)
(declare-fun f20 () S6)
(declare-fun f21 () S3)
(declare-fun f22 (S12 S13) S8)
(declare-fun f23 () S12)
(declare-fun f24 (S11) S13)
(declare-fun f25 (S16 S15) S1)
(declare-fun f26 (S6 S14) S16)
(declare-fun f27 (S17) S3)
(declare-fun f28 (S18 Int) S17)
(declare-fun f29 () S18)
(declare-fun f30 (S19 S17) Int)
(declare-fun f31 () S19)
(declare-fun f32 (S21 S2) S17)
(declare-fun f33 (S22 S20) S21)
(declare-fun f34 () S22)
(declare-fun f35 (S3) S3)
(declare-fun f36 (S3 S3) S1)
(declare-fun f37 (S23 S3) S2)
(declare-fun f38 () S23)
(declare-fun f39 () S1)
(declare-fun f40 () S8)
(declare-fun f41 (S24 S8) S8)
(declare-fun f42 (S25 S8) S24)
(declare-fun f43 () S25)
(declare-fun f44 () S21)
(declare-fun f45 (S8 S15 S15) S1)
(assert (not (= f1 f2)))
(assert (forall ((?v0 S2) (?v1 S3) (?v2 S2)) (= (= (f3 (f4 (f5 ?v0) ?v1) ?v2) f1) (or (= ?v2 ?v0) (= (f6 ?v2 ?v1) f1)))))
(assert (forall ((?v0 S2) (?v1 S3) (?v2 S2)) (= (= (f3 (f4 (f7 ?v0) ?v1) ?v2) f1) (=> (not (= ?v2 ?v0)) (= (f3 ?v1 ?v2) f1)))))
(assert (forall ((?v0 S2)) (= (= (f3 f8 ?v0) f1) false)))
(assert (not (= (f9 f10 (f4 (f11 (f12 (f13 (f14 f15 f16) (f17 f18 f19)) f20)) f21)) f1)))
(assert (let ((?v_0 (f14 f15 f16))) (= (f9 (f4 (f11 (f12 (f13 ?v_0 (f17 f18 f19)) f20)) f10) (f4 (f11 (f12 (f13 ?v_0 (f22 f23 (f24 f19))) f20)) f21)) f1)))
(assert (forall ((?v0 S3)) (= (f9 ?v0 f21) f1)))
(assert (forall ((?v0 S6) (?v1 S8) (?v2 S6) (?v3 S6) (?v4 S8) (?v5 S6)) (= (= (f12 (f13 (f14 f15 ?v0) ?v1) ?v2) (f12 (f13 (f14 f15 ?v3) ?v4) ?v5)) (and (= ?v0 ?v3) (and (= ?v1 ?v4) (= ?v2 ?v5))))))
(assert (forall ((?v0 S3) (?v1 S3) (?v2 S3)) (=> (= (f9 ?v0 ?v1) f1) (=> (= (f9 ?v2 ?v0) f1) (= (f9 ?v2 ?v1) f1)))))
(assert (forall ((?v0 S3) (?v1 S2) (?v2 S3)) (let ((?v_0 (f11 ?v1))) (=> (= (f9 ?v0 (f4 ?v_0 f21)) f1) (=> (= (f9 ?v0 ?v2) f1) (= (f9 ?v0 (f4 ?v_0 ?v2)) f1))))))
(assert (forall ((?v0 S3) (?v1 S6) (?v2 S8) (?v3 S6) (?v4 S6)) (let ((?v_0 (f13 (f14 f15 ?v1) ?v2))) (=> (= (f9 ?v0 (f4 (f11 (f12 ?v_0 ?v3)) f21)) f1) (=> (forall ((?v5 S14) (?v6 S15)) (=> (= (f25 (f26 ?v3 ?v5) ?v6) f1) (= (f25 (f26 ?v4 ?v5) ?v6) f1))) (= (f9 ?v0 (f4 (f11 (f12 ?v_0 ?v4)) f21)) f1))))))
(assert (forall ((?v0 S3) (?v1 S6) (?v2 S8) (?v3 S6) (?v4 S6)) (=> (= (f9 ?v0 (f4 (f11 (f12 (f13 (f14 f15 ?v1) ?v2) ?v3)) f21)) f1) (=> (forall ((?v5 S14) (?v6 S15)) (=> (= (f25 (f26 ?v4 ?v5) ?v6) f1) (= (f25 (f26 ?v1 ?v5) ?v6) f1))) (= (f9 ?v0 (f4 (f11 (f12 (f13 (f14 f15 ?v4) ?v2) ?v3)) f21)) f1)))))
(assert (forall ((?v0 S3) (?v1 S6) (?v2 S8) (?v3 S6) (?v4 S6) (?v5 S6)) (=> (= (f9 ?v0 (f4 (f11 (f12 (f13 (f14 f15 ?v1) ?v2) ?v3)) f21)) f1) (=> (forall ((?v6 S14) (?v7 S15)) (=> (= (f25 (f26 ?v4 ?v6) ?v7) f1) (forall ((?v8 S15)) (=> (forall ((?v9 S14)) (=> (= (f25 (f26 ?v1 ?v9) ?v7) f1) (= (f25 (f26 ?v3 ?v9) ?v8) f1))) (= (f25 (f26 ?v5 ?v6) ?v8) f1))))) (= (f9 ?v0 (f4 (f11 (f12 (f13 (f14 f15 ?v4) ?v2) ?v5)) f21)) f1)))))
(assert (forall ((?v0 S17) (?v1 S6) (?v2 S11) (?v3 S6)) (let ((?v_0 (f14 f15 ?v1))) (= (= (f3 (f27 ?v0) (f12 (f13 ?v_0 (f22 f23 (f24 ?v2))) ?v3)) f1) (= (f3 (f27 (f28 f29 (+ (f30 f31 ?v0) 1))) (f12 (f13 ?v_0 (f17 f18 ?v2)) ?v3)) f1)))))
(assert (forall ((?v0 S2) (?v1 S2) (?v2 S3)) (=> (= (f6 ?v0 (f4 (f11 ?v1) ?v2)) f1) (=> (=> (= ?v0 ?v1) false) (=> (=> (= (f6 ?v0 ?v2) f1) false) false)))))
(assert (forall ((?v0 S2) (?v1 S3) (?v2 S2)) (=> (=> (not (= (f6 ?v0 ?v1) f1)) (= ?v0 ?v2)) (= (f6 ?v0 (f4 (f11 ?v2) ?v1)) f1))))
(assert (forall ((?v0 S2)) (=> (= (f6 ?v0 f21) f1) false)))
(assert (forall ((?v0 S20) (?v1 S6) (?v2 S8) (?v3 S6)) (= (f32 (f33 f34 ?v0) (f12 (f13 (f14 f15 ?v1) ?v2) ?v3)) (f28 f29 0))))
(assert (forall ((?v0 S2) (?v1 S3)) (not (= f21 (f4 (f11 ?v0) ?v1)))))
(assert (forall ((?v0 S2) (?v1 S3)) (not (= (f4 (f11 ?v0) ?v1) f21))))
(assert (forall ((?v0 S17) (?v1 S2)) (=> (= (f3 (f27 (f28 f29 (+ (f30 f31 ?v0) 1))) ?v1) f1) (= (f3 (f27 ?v0) ?v1) f1))))
(assert (forall ((?v0 S3) (?v1 S17)) (=> (forall ((?v2 S2)) (=> (= (f6 ?v2 ?v0) f1) (= (f3 (f27 (f28 f29 (+ (f30 f31 ?v1) 1))) ?v2) f1))) (forall ((?v2 S2)) (=> (= (f6 ?v2 ?v0) f1) (= (f3 (f27 ?v1) ?v2) f1))))))
(assert (forall ((?v0 S3) (?v1 S2)) (=> (= ?v0 f21) (not (= (f6 ?v1 ?v0) f1)))))
(assert (forall ((?v0 S3)) (= (= (f35 ?v0) f21) (forall ((?v1 S2)) (not (= (f3 ?v0 ?v1) f1))))))
(assert (forall ((?v0 S2)) (= (= (f6 ?v0 f21) f1) false)))
(assert (forall ((?v0 S3)) (= (= f21 (f35 ?v0)) (forall ((?v1 S2)) (not (= (f3 ?v0 ?v1) f1))))))
(assert (forall ((?v0 S3)) (= (forall ((?v1 S2)) (=> (= (f6 ?v1 f21) f1) (= (f3 ?v0 ?v1) f1))) true)))
(assert (forall ((?v0 S3)) (= (exists ((?v1 S2)) (and (= (f6 ?v1 f21) f1) (= (f3 ?v0 ?v1) f1))) false)))
(assert (forall ((?v0 S3)) (= (exists ((?v1 S2)) (= (f6 ?v1 ?v0) f1)) (not (= ?v0 f21)))))
(assert (forall ((?v0 S3)) (= (forall ((?v1 S2)) (not (= (f6 ?v1 ?v0) f1))) (= ?v0 f21))))
(assert (= f21 (f35 f8)))
(assert (forall ((?v0 S2) (?v1 S3)) (=> (= (f6 ?v0 ?v1) f1) (= (f4 (f11 ?v0) ?v1) ?v1))))
(assert (forall ((?v0 S2) (?v1 S3) (?v2 S2)) (=> (= (f6 ?v0 ?v1) f1) (= (f6 ?v0 (f4 (f11 ?v2) ?v1)) f1))))
(assert (forall ((?v0 S2) (?v1 S3) (?v2 S3)) (let ((?v_0 (f11 ?v0))) (=> (not (= (f6 ?v0 ?v1) f1)) (=> (not (= (f6 ?v0 ?v2) f1)) (= (= (f4 ?v_0 ?v1) (f4 ?v_0 ?v2)) (= ?v1 ?v2)))))))
(assert (forall ((?v0 S2) (?v1 S3) (?v2 S2)) (= (= (f3 (f4 (f11 ?v0) ?v1) ?v2) f1) (or (= ?v0 ?v2) (= (f3 ?v1 ?v2) f1)))))
(assert (forall ((?v0 S2) (?v1 S2) (?v2 S3)) (= (= (f6 ?v0 (f4 (f11 ?v1) ?v2)) f1) (or (= ?v0 ?v1) (= (f6 ?v0 ?v2) f1)))))
(assert (forall ((?v0 S2) (?v1 S2) (?v2 S3)) (let ((?v_1 (f11 ?v0)) (?v_0 (f11 ?v1))) (= (f4 ?v_1 (f4 ?v_0 ?v2)) (f4 ?v_0 (f4 ?v_1 ?v2))))))
(assert (forall ((?v0 S2) (?v1 S3)) (let ((?v_0 (f11 ?v0))) (let ((?v_1 (f4 ?v_0 ?v1))) (= (f4 ?v_0 ?v_1) ?v_1)))))
(assert (forall ((?v0 S2) (?v1 S3)) (= (f4 (f11 ?v0) (f35 ?v1)) (f35 (f4 (f7 ?v0) ?v1)))))
(assert (forall ((?v0 S2) (?v1 S3)) (= (f4 (f11 ?v0) ?v1) (f35 (f4 (f5 ?v0) ?v1)))))
(assert (forall ((?v0 S2) (?v1 S3)) (= (f6 ?v0 (f4 (f11 ?v0) ?v1)) f1)))
(assert (forall ((?v0 S6) (?v1 S11) (?v2 S6)) (= (f3 (f27 (f28 f29 0)) (f12 (f13 (f14 f15 ?v0) (f17 f18 ?v1)) ?v2)) f1)))
(assert (forall ((?v0 S2) (?v1 S2)) (=> (= (f4 (f11 ?v0) f21) (f4 (f11 ?v1) f21)) (= ?v0 ?v1))))
(assert (forall ((?v0 S2) (?v1 S2)) (=> (= (f6 ?v0 (f4 (f11 ?v1) f21)) f1) (=> (=> (= ?v0 ?v1) false) false))))
(assert (forall ((?v0 S2) (?v1 S2) (?v2 S2) (?v3 S2)) (= (= (f4 (f11 ?v0) (f4 (f11 ?v1) f21)) (f4 (f11 ?v2) (f4 (f11 ?v3) f21))) (or (and (= ?v0 ?v2) (= ?v1 ?v3)) (and (= ?v0 ?v3) (= ?v1 ?v2))))))
(assert (forall ((?v0 S2) (?v1 S2)) (= (= (f6 ?v0 (f4 (f11 ?v1) f21)) f1) (= ?v0 ?v1))))
(assert (forall ((?v0 S3) (?v1 S3)) (= (= (f36 ?v0 ?v1) f1) (forall ((?v2 S17)) (=> (forall ((?v3 S2)) (=> (= (f6 ?v3 ?v0) f1) (= (f3 (f27 ?v2) ?v3) f1))) (forall ((?v3 S2)) (=> (= (f6 ?v3 ?v1) f1) (= (f3 (f27 ?v2) ?v3) f1))))))))
(assert (forall ((?v0 S2)) (= (f37 f38 (f4 (f11 ?v0) f21)) ?v0)))
(assert (forall ((?v0 S2)) (= (= (f3 f21 ?v0) f1) (= f39 f1))))
(assert (forall ((?v0 S2)) (= (= (f3 f21 ?v0) f1) (= f39 f1))))
(assert (forall ((?v0 S3) (?v1 S6)) (= (f9 ?v0 (f4 (f11 (f12 (f13 (f14 f15 ?v1) f40) ?v1)) f21)) f1)))
(assert (forall ((?v0 S3) (?v1 S6) (?v2 S8) (?v3 S6) (?v4 S8) (?v5 S6)) (let ((?v_0 (f14 f15 ?v1))) (=> (= (f9 ?v0 (f4 (f11 (f12 (f13 ?v_0 ?v2) ?v3)) f21)) f1) (=> (= (f9 ?v0 (f4 (f11 (f12 (f13 (f14 f15 ?v3) ?v4) ?v5)) f21)) f1) (= (f9 ?v0 (f4 (f11 (f12 (f13 ?v_0 (f41 (f42 f43 ?v2) ?v4)) ?v5)) f21)) f1))))))
(assert (forall ((?v0 S6) (?v1 S8) (?v2 S6)) (= (f32 f44 (f12 (f13 (f14 f15 ?v0) ?v1) ?v2)) (f28 f29 0))))
(assert (forall ((?v0 S2)) (=> (forall ((?v1 S6) (?v2 S8) (?v3 S6)) (=> (= ?v0 (f12 (f13 (f14 f15 ?v1) ?v2) ?v3)) false)) false)))
(assert (forall ((?v0 S2) (?v1 S3)) (=> (= (f6 ?v0 ?v1) f1) (=> (forall ((?v2 S3)) (=> (= ?v1 (f4 (f11 ?v0) ?v2)) (=> (not (= (f6 ?v0 ?v2) f1)) false))) false))))
(assert (forall ((?v0 S2) (?v1 S3)) (=> (= (f6 ?v0 ?v1) f1) (exists ((?v2 S3)) (and (= ?v1 (f4 (f11 ?v0) ?v2)) (not (= (f6 ?v0 ?v2) f1)))))))
(assert (forall ((?v0 S8) (?v1 S8)) (not (= (f41 (f42 f43 ?v0) ?v1) f40))))
(assert (forall ((?v0 S8) (?v1 S8)) (not (= f40 (f41 (f42 f43 ?v0) ?v1)))))
(assert (forall ((?v0 S11)) (not (= f40 (f17 f18 ?v0)))))
(assert (forall ((?v0 S11)) (not (= (f17 f18 ?v0) f40))))
(assert (forall ((?v0 S11) (?v1 S8) (?v2 S8)) (not (= (f17 f18 ?v0) (f41 (f42 f43 ?v1) ?v2)))))
(assert (forall ((?v0 S8) (?v1 S8) (?v2 S11)) (not (= (f41 (f42 f43 ?v0) ?v1) (f17 f18 ?v2)))))
(assert (forall ((?v0 S3)) (=> (forall ((?v1 S2)) (=> (= (f6 ?v1 ?v0) f1) false)) (= ?v0 f21))))
(assert (forall ((?v0 S11) (?v1 S11)) (= (= (f17 f18 ?v0) (f17 f18 ?v1)) (= ?v0 ?v1))))
(assert (forall ((?v0 S8) (?v1 S8) (?v2 S8) (?v3 S8)) (= (= (f41 (f42 f43 ?v0) ?v1) (f41 (f42 f43 ?v2) ?v3)) (and (= ?v0 ?v2) (= ?v1 ?v3)))))
(assert (forall ((?v0 S6) (?v1 S3) (?v2 S8) (?v3 S6)) (=> (forall ((?v4 S14) (?v5 S15)) (=> (= (f25 (f26 ?v0 ?v4) ?v5) f1) (exists ((?v6 S6) (?v7 S6)) (and (= (f9 ?v1 (f4 (f11 (f12 (f13 (f14 f15 ?v6) ?v2) ?v7)) f21)) f1) (forall ((?v8 S15)) (=> (forall ((?v9 S14)) (=> (= (f25 (f26 ?v6 ?v9) ?v5) f1) (= (f25 (f26 ?v7 ?v9) ?v8) f1))) (= (f25 (f26 ?v3 ?v4) ?v8) f1))))))) (= (f9 ?v1 (f4 (f11 (f12 (f13 (f14 f15 ?v0) ?v2) ?v3)) f21)) f1))))
(assert (forall ((?v0 S11) (?v1 S15) (?v2 S15)) (=> (= (f45 (f22 f23 (f24 ?v0)) ?v1 ?v2) f1) (= (f45 (f17 f18 ?v0) ?v1 ?v2) f1))))
(assert (forall ((?v0 S17)) (= (f28 f29 (f30 f31 ?v0)) ?v0)))
(assert (forall ((?v0 Int)) (=> (<= 0 ?v0) (= (f30 f31 (f28 f29 ?v0)) ?v0))))
(assert (forall ((?v0 Int)) (=> (< ?v0 0) (= (f30 f31 (f28 f29 ?v0)) 0))))
(check-sat)
(exit)
